instances/tuning-use-case-1/oven_scheduling.minizinc_instance_0112-17.51.47.dzn
l=13797;
a=2;
setup_costs=[|11,24,
|23,0,
|0,0|];
setup_times=[|1,25,
|18,6,
|0,0|];
m=5;
min_cap=[0,0,0,0,0];
max_cap=[16,8,18,6,11];

initState=[1,2,2,2,2];
s=4;
m_a_s = [|148,1694,9878,12800,
|5367,8533,9811,13724,
|8528,11378,12018,12310,
|0,0,9842,10828,
|1065,3755,4259,5330|];
m_a_e = [|1475,9013,12444,13717,
|8500,8935,10866,13750,
|11211,11569,12106,13751,
|0,0,10401,12350,
|3651,4196,5046,12944|];
n=50;
eligible_machine = [{3,4},
{5,2,4},
{4,2,5},
{2,5},
{3,5},
{2,3},
{2,5},
{2,4},
{1,3,5},
{3,1,4,5},
{1,4,5},
{3,5},
{4,1},
{4,2,3,5},
{5,1,2},
{3,2},
{1,3,4},
{4,1},
{3},
{4,2},
{4,1,3},
{3,5},
{4,1,2,3},
{4,5},
{5,1,2,4},
{4,1,2,3},
{5,3},
{1,2,5},
{3,1,2},
{1,4},
{5,4},
{4,1,3,5},
{5,3,4},
{4,3,5},
{2,1},
{5,1,3,4},
{4,1,2,3},
{5,2,3},
{5,3,4},
{1,3,4,5},
{4,2,5},
{3},
{5,1,2,3},
{4,3},
{4,1,2,3},
{1,5},
{4,1,2,3},
{2,5},
{2,4,5},
{1,3}];
earliest_start=[98,177,117,71,51,93,149,2,0,159,204,61,35,158,207,152,199,69,148,192,98,172,155,126,205,161,45,206,112,175,119,60,19,95,0,176,184,119,172,138,48,126,90,154,170,175,169,209,51,164];
latest_end=[101,293,150,88,73,198,154,22,115,243,229,108,59,196,391,245,202,140,161,313,158,226,217,302,246,215,46,249,122,207,135,122,154,126,59,265,208,179,333,248,135,299,103,226,221,193,250,286,64,274];
min_time=[3,67,24,9,19,65,5,20,81,57,17,27,14,27,98,77,2,55,9,81,60,35,58,100,39,35,1,43,6,20,11,37,81,22,33,70,16,60,87,97,65,89,8,60,46,10,71,48,13,69];
max_time=[34,78,52,40,66,73,88,83,100,65,34,66,69,46,99,91,88,61,91,92,80,67,87,100,97,90,60,90,18,68,84,85,82,35,36,98,100,87,97,98,79,89,93,77,86,96,76,89,64,85];
size=[4,1,1,4,2,1,1,4,5,4,3,3,5,1,4,2,4,2,1,5,2,3,2,4,4,3,4,5,1,1,3,4,2,1,5,5,5,5,3,4,5,3,5,3,2,4,3,1,3,1];
attribute=[2,2,2,2,1,2,2,1,1,1,2,2,2,1,2,1,1,1,2,1,2,2,2,1,2,1,1,1,2,1,2,1,1,1,1,2,2,1,1,2,1,2,2,1,2,1,2,1,2,2];

upper_bound_integer_objective=135450000;
mult_factor_total_runtime=2400;
mult_factor_finished_toolate=2580000;
mult_factor_total_setuptimes=0;
mult_factor_total_setupcosts=1075;
running_time_bound=2147;
min_duration=1;
max_duration=100;
max_setup_time=25;
max_setup_cost=24;
